decision_x1=[0,2];
decision_x2=[0,2];
decision_x3=[0,2];
decision_x4=[0,2];
decision_x5=[0,2];
decision_x6=[0,2];
decision_x7=[0,2];
decision_x8=[0,2];
random_y1=[0,2];
random_y2=[0,2];
constraint_x3_x1=[
0,0,6.5|
0,1,0.77|
0,2,0.22|
1,0,2.6|
1,1,1.1|
1,2,3.5|
2,0,1.4|
2,1,6.9|
2,2,8|
];
constraint_x5_x2=[
0,0,6.6|
0,1,3.9|
0,2,4.2|
1,0,3.7|
1,1,4.8|
1,2,3.7|
2,0,7.1|
2,1,1.4|
2,2,2.1|
];
constraint_x6_x1=[
0,0,9.6|
0,1,3|
0,2,8.4|
1,0,3.4|
1,1,0.78|
1,2,0.32|
2,0,3.4|
2,1,7.6|
2,2,9|
];
constraint_x6_x3=[
0,0,4.5|
0,1,0.2|
0,2,5.8|
1,0,6.2|
1,1,3.3|
1,2,4.2|
2,0,4.9|
2,1,7.6|
2,2,6.8|
];
constraint_x6_x4=[
0,0,6.2|
0,1,6.2|
0,2,9.8|
1,0,3.5|
1,1,2.6|
1,2,9.5|
2,0,4.2|
2,1,6.8|
2,2,5.5|
];
constraint_x6_x5=[
0,0,4|
0,1,6.7|
0,2,0.59|
1,0,2.3|
1,1,4.5|
1,2,1|
2,0,3.8|
2,1,7.6|
2,2,6.7|
];
constraint_x7_x2=[
0,0,2.2|
0,1,0.34|
0,2,7|
1,0,9.1|
1,1,6.6|
1,2,7.1|
2,0,3.3|
2,1,5.9|
2,2,1.8|
];
constraint_x7_x3=[
0,0,6|
0,1,4.8|
0,2,6.3|
1,0,2.5|
1,1,4.8|
1,2,8.9|
2,0,0.32|
2,1,1.2|
2,2,5.2|
];
constraint_x7_x5=[
0,0,3.1|
0,1,3.5|
0,2,7.5|
1,0,8.3|
1,1,4.8|
1,2,8.8|
2,0,3.2|
2,1,8.2|
2,2,9.4|
];
constraint_x7_x6=[
0,0,2.2|
0,1,6.8|
0,2,2|
1,0,0.66|
1,1,2.6|
1,2,7.9|
2,0,0.31|
2,1,5.4|
2,2,9.5|
];
constraint_x8_x1=[
0,0,2.5|
0,1,1.7|
0,2,1.5|
1,0,0.93|
1,1,5|
1,2,8.1|
2,0,9.5|
2,1,4|
2,2,6.1|
];
constraint_x8_x2=[
0,0,5.5|
0,1,8.1|
0,2,3.3|
1,0,3.3|
1,1,7.2|
1,2,8.8|
2,0,0.23|
2,1,9.7|
2,2,2.1|
];
constraint_x8_x3=[
0,0,3.6|
0,1,0.43|
0,2,3.5|
1,0,4.4|
1,1,4.6|
1,2,9.4|
2,0,9.6|
2,1,6.3|
2,2,2.7|
];
constraint_x8_x4=[
0,0,1|
0,1,6.6|
0,2,1.7|
1,0,3.8|
1,1,7|
1,2,6.3|
2,0,4.5|
2,1,6|
2,2,7.6|
];
constraint_x1_y1=[
0,0,5.2|
0,1,9.8|
0,2,2.3|
1,0,5.2|
1,1,1.8|
1,2,8.2|
2,0,9.9|
2,1,4.4|
2,2,5.4|
];
constraint_x2_y2=[
0,0,5.3|
0,1,5.5|
0,2,8.1|
1,0,0.93|
1,1,0.95|
1,2,9.5|
2,0,4.2|
2,1,0.67|
2,2,4.6|
];
initial_distribution_y1=[0.48,0.23,0.29];
initial_distribution_y2=[0.18,0.15,0.67];
transition_y1=[
0.35,0.33,0.32|
0.38,0.43,0.18|
0.25,0.58,0.17|
];
transition_y2=[
0.12,0.75,0.14|
0.1,0.54,0.35|
0.4,0.49,0.1|
];
